5 2
6 2
7 2
8 1
9 3
10 5
11 4
12 5
13 3
14 1
15 5
16 2
5 6
6 2
7 3
8 5
9 3
10 5
11 2
12 6
13 5
14 5
15 5
16 6
5 6
6 7
7 7
8 6
9 6
10 4
11 6
12 5
13 6
14 4
15 7
16 7
5 7
6 8
7 8
8 8
9 6
10 5
11 4
12 5
13 6
14 7
15 6
16 5
5 9
6 7
7 9
8 7
9 9
10 8
11 5
12 9
13 8
14 5
15 5
16 7
5 7
6 9
7 8
8 9
9 9
10 10
11 7
12 10
13 10
14 9
15 7
16 10
5 11
6 8
7 10
8 11
9 10
10 11
11 7
12 9
13 10
14 11
15 10
16 7
5 9
6 8
7 10
8 11
9 11
10 11
11 9
12 12
13 8
14 12
15 8
16 10
5 9
6 12
7 12
8 13
9 12
10 11
11 11
12 10
13 11
14 11
15 12
16 13
5 12
6 10
7 11
8 11
9 12
10 10
11 11
12 10
13 13
14 10
15 11
16 12
5 15
6 12
7 15
8 14
9 12
10 15
11 11
12 14
13 15
14 12
15 13
16 13
5 15
6 16
7 13
8 14
9 12
10 15
11 14
12 13
13 14
14 13
15 13
16 13
5 16
6 15
7 13
8 17
9 15
10 15
